4 
5  25 42 55 
6  10 23 36 51 
7  06 21 36 51 
8  06 21 36 51 
9  06 21 36 53 
10  08 23 38 53 
11  08 23 38 53 
12  08 23 38 53 
13  08 23 38 53 
14  08 23 38 53 
15  08 23 38 53 
16  08 23 38 53 
17  08 23 38 53 
18  08 23 38 53 
19  08 23 38 53 
20  08 23 38 53 
21  08 23 38 53 
22  10 25 40 52 
23  05 
0 
